(declare-fun temp112432_1 () (_ BitVec 64))
(declare-fun temp112432_2 () (_ BitVec 64))
(declare-fun var77740 () (_ BitVec 64))
(declare-fun k!0 () Bool)
(declare-fun ARGNAME_input_1_NAMEEND_DIM () (_ BitVec 64))
(declare-fun ARGNAME_data_format_NAMEEND_STRFMT () (_ BitVec 64))
(declare-fun temp112432_3 () (_ BitVec 64))
(declare-fun ARGNAME_input_2_NAMEEND_DIM () (_ BitVec 64))
(declare-fun var77770 () (_ BitVec 64))
(declare-fun temp112432_4 () (_ BitVec 64))
(declare-fun temp112432_5 () (_ BitVec 64))
(declare-fun ARGNAME_input_1_NAMEEND_DIMSIZE
             ()
             (Array (_ BitVec 64) (_ BitVec 64)))
(declare-fun temp112432_6 () (_ BitVec 64))
(declare-fun temp112432_7 () (_ BitVec 64))
(declare-fun temp112432_8 () (_ BitVec 64))
(declare-fun temp112432_9 () (_ BitVec 64))
(declare-fun temp112432_10 () (_ BitVec 64))
(declare-fun temp112432_11 () (_ BitVec 64))
(declare-fun temp112432_12 () (_ BitVec 64))
(declare-fun temp112432_13 () (_ BitVec 64))
(declare-fun temp112432_14 () (_ BitVec 64))
(declare-fun temp112432_15 () (_ BitVec 64))
(declare-fun temp112432_16 () (_ BitVec 64))
(declare-fun temp112432_17 () (_ BitVec 64))
(declare-fun temp112432_18 () (_ BitVec 64))
(declare-fun var77799 () (_ BitVec 64))
(declare-fun temp112432_19 () (_ BitVec 64))
(declare-fun ARGNAME_input_2_NAMEEND_DIMSIZE
             ()
             (Array (_ BitVec 64) (_ BitVec 64)))
(declare-fun temp112432_20 () (_ BitVec 64))
(declare-fun temp112432_21 () (_ BitVec 64))
(declare-fun temp112432_22 () (_ BitVec 64))
(declare-fun temp112432_23 () (_ BitVec 64))
(declare-fun temp112432_24 () (_ BitVec 64))
(declare-fun temp112432_25 () (_ BitVec 64))
(declare-fun temp112432_26 () (_ BitVec 64))
(declare-fun temp112432_27 () (_ BitVec 64))
(declare-fun temp112432_28 () (_ BitVec 64))
(declare-fun temp112432_29 () (_ BitVec 64))
(declare-fun temp112432_30 () (_ BitVec 64))
(declare-fun temp112432_31 () (_ BitVec 64))
(declare-fun temp112432_32 () (_ BitVec 64))
(declare-fun var77832 () (_ BitVec 64))
(declare-fun temp112432_33 () (_ BitVec 64))
(declare-fun temp112432_34 () (_ BitVec 64))
(declare-fun var77833 () (_ BitVec 64))
(declare-fun var77834 () (_ BitVec 64))
(declare-fun temp112432_35 () (_ BitVec 64))
(declare-fun temp112432_36 () (_ BitVec 64))
(declare-fun var275510 () (_ BitVec 64))
(declare-fun temp112432_37 () (_ BitVec 64))
(declare-fun var275528 () (_ BitVec 64))
(declare-fun temp112432_38 () (_ BitVec 64))
(declare-fun temp112432_39 () (_ BitVec 64))
(declare-fun var406582 () (_ BitVec 64))
(declare-fun temp112432_40 () (_ BitVec 64))
(declare-fun var406600 () (_ BitVec 64))
(declare-fun temp112432_41 () (_ BitVec 64))
(declare-fun temp112432_43 () (_ BitVec 64))
(declare-fun temp112432_42 () (_ BitVec 64))
(declare-fun temp112432_45 () (_ BitVec 64))
(declare-fun temp112432_44 () (_ BitVec 64))
(declare-fun temp112432_46 () (_ BitVec 64))
(declare-fun var537654 () (_ BitVec 64))
(declare-fun temp112432_47 () (_ BitVec 64))
(declare-fun var537672 () (_ BitVec 64))
(declare-fun temp112432_48 () (_ BitVec 64))
(declare-fun temp112432_50 () (_ BitVec 64))
(declare-fun temp112432_49 () (_ BitVec 64))
(declare-fun temp112432_52 () (_ BitVec 64))
(declare-fun temp112432_51 () (_ BitVec 64))
(declare-fun temp112432_54 () (_ BitVec 64))
(declare-fun temp112432_53 () (_ BitVec 64))
(declare-fun temp112432_56 () (_ BitVec 64))
(declare-fun temp112432_55 () (_ BitVec 64))
(declare-fun temp112432_58 () (_ BitVec 64))
(declare-fun temp112432_57 () (_ BitVec 64))
(declare-fun temp112432_59 () (_ BitVec 64))
(declare-fun var795723 () (_ BitVec 64))
(declare-fun var795702 () (_ BitVec 64))
(declare-fun var664608 () (_ BitVec 64))
(declare-fun temp112432_60 () (_ BitVec 64))
(declare-fun temp112432_62 () (_ BitVec 64))
(declare-fun temp112432_61 () (_ BitVec 64))
(declare-fun temp112432_64 () (_ BitVec 64))
(declare-fun temp112432_63 () (_ BitVec 64))
(declare-fun temp112432_66 () (_ BitVec 64))
(declare-fun temp112432_65 () (_ BitVec 64))
(declare-fun temp112432_67 () (_ BitVec 64))
(declare-fun var992306 () (_ BitVec 64))
(declare-fun temp112432_68 () (_ BitVec 64))
(declare-fun var992307 () (_ BitVec 64))
(declare-fun var992308 () (_ BitVec 64))
(declare-fun var992304 () (_ BitVec 64))
(declare-fun var599004 () (_ BitVec 64))
(declare-fun temp112432_69 () (_ BitVec 64))
(declare-fun var1057842 () (_ BitVec 64))
(declare-fun temp112432_70 () (_ BitVec 64))
(declare-fun var1057843 () (_ BitVec 64))
(declare-fun var1057844 () (_ BitVec 64))
(declare-fun var1057840 () (_ BitVec 64))
(declare-fun var599011 () (_ BitVec 64))
(declare-fun temp112432_71 () (_ BitVec 64))
(declare-fun var1123378 () (_ BitVec 64))
(declare-fun temp112432_72 () (_ BitVec 64))
(declare-fun var1123379 () (_ BitVec 64))
(declare-fun var1123380 () (_ BitVec 64))
(declare-fun var1123376 () (_ BitVec 64))
(declare-fun var599016 () (_ BitVec 64))
(declare-fun var78095 () (_ BitVec 64))
(declare-fun temp112432_73 () (_ BitVec 64))
(declare-fun temp112432_74 () (_ BitVec 64))
(declare-fun var78184 () (_ BitVec 64))
(declare-fun temp112432_76 () (_ BitVec 64))
(declare-fun temp112432_75 () (_ BitVec 64))
(declare-fun temp112432_78 () (_ BitVec 64))
(declare-fun temp112432_77 () (_ BitVec 64))
(declare-fun temp112432_79 () (_ BitVec 64))
(declare-fun var78544 () (_ BitVec 64))
(declare-fun temp112432_80 () (_ BitVec 64))
(declare-fun var78545 () (_ BitVec 64))
(assert (or (= ARGNAME_data_format_NAMEEND_STRFMT #x0000000000000000)
    (= ARGNAME_data_format_NAMEEND_STRFMT #x0000000000000001)
    (= ARGNAME_data_format_NAMEEND_STRFMT #x0000000000000002)
    (= ARGNAME_data_format_NAMEEND_STRFMT #x0000000000000003)
    (= ARGNAME_data_format_NAMEEND_STRFMT #x0000000000000004)
    (= ARGNAME_data_format_NAMEEND_STRFMT #x0000000000000005)))
(assert (= temp112432_1 #x0000000000000005))
(assert (= var77740
   (ite (= ARGNAME_input_1_NAMEEND_DIM temp112432_1)
        #x0000000000000001
        #x0000000000000000)))
(assert (= temp112432_2 #x0000000000000001))
(assert (= var77740 temp112432_2))
(assert (= temp112432_3 #x0000000000000005))
(assert (= var77770
   (ite (= ARGNAME_input_2_NAMEEND_DIM temp112432_3)
        #x0000000000000001
        #x0000000000000000)))
(assert (= temp112432_4 #x0000000000000001))
(assert (= var77770 temp112432_4))
(assert (= temp112432_5 #x0000000000000000))
(assert (= temp112432_6 (select ARGNAME_input_1_NAMEEND_DIMSIZE temp112432_5)))
(assert (= temp112432_7 #x0000000000000001))
(assert (= temp112432_8 (select ARGNAME_input_1_NAMEEND_DIMSIZE temp112432_7)))
(assert (= temp112432_9 #x0000000000000002))
(assert (= temp112432_10 (select ARGNAME_input_1_NAMEEND_DIMSIZE temp112432_9)))
(assert (= temp112432_11 #x0000000000000003))
(assert (= temp112432_12 (select ARGNAME_input_1_NAMEEND_DIMSIZE temp112432_11)))
(assert (= temp112432_13 #x0000000000000004))
(assert (= temp112432_14 (select ARGNAME_input_1_NAMEEND_DIMSIZE temp112432_13)))
(assert (= temp112432_15 #x0000000000000005))
(assert (= temp112432_16 (select ARGNAME_input_1_NAMEEND_DIMSIZE temp112432_15)))
(assert (= temp112432_17 #x0000000000000003))
(assert (= temp112432_18 (select ARGNAME_input_1_NAMEEND_DIMSIZE temp112432_17)))
(assert (= var77799 temp112432_18))
(assert (= temp112432_19 #x0000000000000000))
(assert (= temp112432_20 (select ARGNAME_input_2_NAMEEND_DIMSIZE temp112432_19)))
(assert (= temp112432_21 #x0000000000000001))
(assert (= temp112432_22 (select ARGNAME_input_2_NAMEEND_DIMSIZE temp112432_21)))
(assert (= temp112432_23 #x0000000000000002))
(assert (= temp112432_24 (select ARGNAME_input_2_NAMEEND_DIMSIZE temp112432_23)))
(assert (= temp112432_25 #x0000000000000003))
(assert (= temp112432_26 (select ARGNAME_input_2_NAMEEND_DIMSIZE temp112432_25)))
(assert (= temp112432_27 #x0000000000000004))
(assert (= temp112432_28 (select ARGNAME_input_2_NAMEEND_DIMSIZE temp112432_27)))
(assert (= temp112432_29 #x0000000000000005))
(assert (= temp112432_30 (select ARGNAME_input_2_NAMEEND_DIMSIZE temp112432_29)))
(assert (= temp112432_31 #x0000000000000004))
(assert (= temp112432_32 (select ARGNAME_input_2_NAMEEND_DIMSIZE temp112432_31)))
(assert (= var77832 temp112432_32))
(assert (= temp112432_33 #x0000000000000004))
(assert (= temp112432_34 (select ARGNAME_input_1_NAMEEND_DIMSIZE temp112432_33)))
(assert (= var77833 temp112432_34))
(assert (= var77834 (ite (= var77832 var77833) #x0000000000000001 #x0000000000000000)))
(assert (= temp112432_35 #x0000000000000001))
(assert (= var77834 temp112432_35))
(assert (= temp112432_36 #x0000000000000001))
(assert (= var275510 temp112432_36))
(assert (= temp112432_37 #x0000000000000001))
(assert (= var275528
   (ite (bvslt var275510 temp112432_37) #x0000000000000001 #x0000000000000000)))
(assert (= temp112432_38 #x0000000000000000))
(assert (= var275528 temp112432_38))
(assert (= temp112432_39 #x0000000000000001))
(assert (= var406582 temp112432_39))
(assert (= temp112432_40 #x0000000000000001))
(assert (= var406600
   (ite (bvslt var406582 temp112432_40) #x0000000000000001 #x0000000000000000)))
(assert (= temp112432_41 #x0000000000000000))
(assert (= var406600 temp112432_41))
(assert (= temp112432_43 #x0000000000000000))
(assert (= temp112432_42 temp112432_43))
(assert (= temp112432_45 #x0000000000000000))
(assert (= temp112432_44 temp112432_45))
(assert (= temp112432_46 #x0000000000000001))
(assert (= var537654 temp112432_46))
(assert (= temp112432_47 #x0000000000000001))
(assert (= var537672
   (ite (bvslt var537654 temp112432_47) #x0000000000000001 #x0000000000000000)))
(assert (= temp112432_48 #x0000000000000000))
(assert (= var537672 temp112432_48))
(assert (= temp112432_50 #x0000000000000000))
(assert (= temp112432_49 temp112432_50))
(assert (= temp112432_52 #x0000000000000000))
(assert (= temp112432_51 temp112432_52))
(assert (= temp112432_54 #x00000000000000ff))
(assert (= temp112432_53 temp112432_54))
(assert (= temp112432_56 #x00000000000000ff))
(assert (= temp112432_55 temp112432_56))
(assert (= temp112432_58 #x00000000000000ff))
(assert (= temp112432_57 temp112432_58))
(assert (= temp112432_59 #x0000000000000000))
(assert (= var795723 temp112432_59))
(assert (= var795702 var795723))
(assert (= var664608 var795702))
(assert (= temp112432_60 #x0000000000000000))
(assert (= var664608 temp112432_60))
(assert (= temp112432_62 #x0000000000000000))
(assert (= temp112432_61 temp112432_62))
(assert (= temp112432_64 #x0000000000000000))
(assert (= temp112432_63 temp112432_64))
(assert (= temp112432_66 #x0000000000000000))
(assert (= temp112432_65 temp112432_66))
(assert (= temp112432_67 #x0000000000008000))
(assert (= var992306 temp112432_67))
(assert (= temp112432_68 #x0000000000000001))
(assert (= var992307
   (ite (bvslt temp112432_65 temp112432_68)
        #x0000000000000001
        #x0000000000000000)))
(assert (= var992308 (ite (= var992307 #x0000000000000001) var992306 temp112432_65)))
(assert (= var992304 var992308))
(assert (= var599004 var992304))
(assert (= temp112432_69 #x0000000000040000))
(assert (= var1057842 temp112432_69))
(assert (= temp112432_70 #x0000000000000001))
(assert (= var1057843
   (ite (bvslt temp112432_63 temp112432_70)
        #x0000000000000001
        #x0000000000000000)))
(assert (= var1057844 (ite (= var1057843 #x0000000000000001) var1057842 temp112432_63)))
(assert (= var1057840 var1057844))
(assert (= var599011 var1057840))
(assert (= temp112432_71 #x0000000000200000))
(assert (= var1123378 temp112432_71))
(assert (= temp112432_72 #x0000000000000001))
(assert (= var1123379
   (ite (bvslt temp112432_61 temp112432_72)
        #x0000000000000001
        #x0000000000000000)))
(assert (= var1123380 (ite (= var1123379 #x0000000000000001) var1123378 temp112432_61)))
(assert (= var1123376 var1123380))
(assert (= var599016 var1123376))
(assert (= var78095 var599016))
(assert (= temp112432_73 #x0000000000000003))
(assert (= temp112432_74 #x0000000000000001))
(assert (= var78184 temp112432_74))
(assert (= temp112432_76 #x0000000000000001))
(assert (= temp112432_75 temp112432_76))
(assert (= temp112432_78 #x0000000000000001))
(assert (= temp112432_77 temp112432_78))
(assert (= temp112432_79 #x0000000000000000))
(assert (= var78544 temp112432_79))
(assert (= temp112432_80 #x0000000000000001))
(assert (= var78545 (bvadd var78544 temp112432_80)))
(model-add temp112432_1 () (_ BitVec 64) #x0000000000000005)
(model-add temp112432_2 () (_ BitVec 64) #x0000000000000001)
(model-add var77740 () (_ BitVec 64) #x0000000000000001)
(model-del k!0)
(model-add ARGNAME_input_1_NAMEEND_DIM
           ()
           (_ BitVec 64)
           (ite k!0 #x0000000000000005 (bvnot #x0000000000000005)))

